100
1000
200
200
200
199
199
198
198
198
196
196
195
195
194
194
193
193
193
193
192
191
191
190
190
189
189
189
188
187
187
186
185
185
185
184
183
183
182
182
181
180
180
178
178
177
176
176
176
176
175
175
175
173
173
172
170
170
169
169
168
167
167
165
165
164
164
164
164
163
163
162
162
161
160
159
159
158
158
158
157
156
156
155
155
155
155
154
154
154
153
153
153
153
153
153
153
151
151
151
150
150
